data/instances/vrp_files/train_25.vrp
NAME : 25
COMMENT : Generated instance No. 25
TYPE : CVRP
DIMENSION : 21
EDGE_WEIGHT_TYPE : EUC_2D
CAPACITY : 30
NODE_COORD_SECTION
 1 444 14
 2 830 864
 3 768 113
 4 795 918
 5 600 940
 6 826 666
 7 577 348
 8 159 604
 9 318 866
 10 993 752
 11 90 288
 12 109 650
 13 765 925
 14 438 901
 15 877 317
 16 868 375
 17 296 649
 18 328 630
 19 609 563
 20 380 548
 21 596 545
DEMAND_SECTION
1 0
2 3
3 8
4 10
5 2
6 9
7 3
8 5
9 10
10 8
11 2
12 6
13 5
14 10
15 9
16 5
17 2
18 5
19 4
20 7
21 6
DEPOT_SECTION
 1
 -1
EOF